;; solver : Z3
;; version : Z3 - v 4.11.0
;; option : model_validate=true smt.arith.solver=2
;; Generated Bug Type : Invalid-model Bug
(set-logic QF_NIA)
(declare-fun b__15 () Int)
(declare-fun a__8 () Int)
(declare-fun a__5 () Int)
(declare-fun b__16 () Int)
(declare-fun a__2 () Int)
(declare-fun a__4 () Int)
(declare-fun a__10 () Int)
(declare-fun a__6 () Int)
(declare-fun a__9 () Int)
(declare-fun a__3 () Int)
(declare-fun a__13 () Int)
(declare-fun a__14 () Int)
(declare-fun a__11 () Int)
(declare-fun a__12 () Int)
(declare-fun a__1 () Int)
(declare-fun a__7 () Int)
(declare-fun Yz8AKJ () Int)
(assert (and (<= Yz8AKJ (- 3)) (<= (- 8) Yz8AKJ)))
(assert (and (>= (+ 1 (* (- 0 1) b__15)) 0) (= (+ (* b__15 a__8 a__5) (* (- 0 1) (* a__8 a__5))) 0) (>= (+ 1 (* (- 0 1) b__16)) 0) (= (+ (* b__16 a__8) (* (- 0 1) a__8)) 0) (= (+ (* b__16 a__2) (* (- 0 1) a__2)) 0) (>= (+ (* a__4 a__2) (* (- 0 1) (* a__4 a__8))) 0) (>= (+ (* a__5 a__2) (* (- 0 1) (* a__10 a__5 a__8))) 0) (>= (+ (* a__6 a__2) (* (- 0 1) (* a__6 a__8))) 0) (>= (+ (* a__5 a__8) (* a__6 a__8) (* (- 0 1) (* a__4 a__2))) 0) (>= (+ (* b__15 a__9) (* b__15 a__3 a__10) (* (- 0 1) (* b__15 a__13)) (* (- 0 1) (* b__15 a__3 a__14)) (* (- 0 1) (* b__15 a__9 a__5 a__14))) 0) (>= (+ (* b__15 a__4 a__10) (+ (+ (- 15) (abs Yz8AKJ)) (mod (- 2) (- a__10)))) 0) (>= (+ (* b__15 a__5 a__10) (* (- 0 1) (* b__15 a__10 a__5 a__14))) 0) (>= (+ (* b__15 a__6 a__10) (* (- 0 1) (* b__15 a__6 a__14))) 0) (>= (+ (* b__15 a__13) (* b__15 a__3 a__14) (* b__15 a__11 a__4 a__14) (* (- 0 1) (* b__15 a__9)) (* (- 0 1) (* b__15 a__3 a__10)) (* (- 0 1) (* b__15 a__12 a__5 a__10)) (* (- 0 1) (* b__15 a__12 a__6 a__10))) 0) (>= (+ (* b__15 a__5 a__14) (* b__15 a__6 a__14) (* (- 0 1) (* b__15 a__4 a__10))) 0) (>= (+ (* b__15 a__9) (* b__15 a__11 a__10) (* (- 0 1) (* b__15 a__13)) (* (- 0 1) (* b__15 a__11 a__14))) 0) (>= (+ (* b__15 a__9) (* b__15 a__12 a__10) (* (- 0 1) (* b__15 a__13)) (* (- 0 1) (* b__15 a__12 a__14))) 0) (>= (+ (* b__16 a__10 a__5) (* (- 0 1) (* b__16 a__5))) 0) (>= (+ (* b__16 a__10 a__4) (* (- 0 1) (* b__16 a__4))) 0) (>= (+ (* b__16 a__10 a__6) (* (- 0 1) (* b__16 a__6))) 0) (>= (+ (* b__16 a__14 a__4) (* (- 0 1) (* b__16 a__4))) 0) (>= (+ (* b__16 a__14 a__5) (* (- 0 1) (* b__16 a__5))) 0) (>= (+ (* b__16 a__14 a__6) (* (- 0 1) (* b__16 a__6))) 0) (>= (+ (* b__15 a__13) (* b__15 a__12 a__14) (* (- 0 1) (* b__15 a__9)) (* (- 0 1) (* b__15 a__11 a__10))) 0) (>= (+ a__1 (* a__3 a__2) (* (- 0 1) a__7) (* (- 0 1) (* a__3 a__8)) (* (- 0 1) (* a__9 a__5 a__8))) 0) (>= (+ a__7 (* a__3 a__8) (* a__11 a__4 a__8) (* (- 0 1) a__1) (* (- 0 1) (* a__3 a__2)) (* (- 0 1) (* a__12 a__5 a__2)) (* (- 0 1) (* a__12 a__6 a__2))) 0) (not (and (= (+ a__1 (* a__3 a__2) (* (- 0 1) a__7) (* (- 0 1) (* a__3 a__8)) (* (- 0 1) (* a__9 a__5 a__8))) 0) (= (+ a__7 (* a__3 a__8) (* a__11 a__4 a__8) (* (- 0 1) a__1) (* (- 0 1) (* a__3 a__2)) (* (- 0 1) (* a__12 a__5 a__2)) (* (- 0 1) (* a__12 a__6 a__2))) 0))) (>= b__15 0) (>= 1 b__15) (>= a__8 0) (>= a__5 0) (>= b__16 0) (>= 1 b__16) (>= a__2 0) (>= a__4 0) (>= a__10 0) (>= a__6 0) (>= a__9 0) (>= a__3 0) (>= a__13 0) (>= a__14 0) (>= a__11 0) (>= a__12 0) (>= a__1 0) (>= a__7 0)))
(check-sat)